# melt Cu using LJ potential

units           metal
boundary        p p p

timestep        0.002

lattice         fcc 3.61
region          box block 0 5 0 5 0 5 
create_box      1 box
create_atoms    1 box 
mass            1 63.55
velocity        all create 6000  4587281

pair_style      lj/cut  3.6
pair_coeff      1 1 0.167 2.314  3.6

neighbor        2.0 bin
neigh_modify    every 20 delay 0 check no

fix             1 all nvt temp 6000 6000 0.2

thermo          1000
thermo_style    custom step temp press vol pe ke etotal enthalpy
thermo_modify   flush yes

run             20000
